W=4;
H=4;

MAX_TIME=8;
MAX_TRACKS=5;

TARGET=(1,4);

N_TRAINS=2;
TRAINS=[(3,1,TOP),(4,3,LEFT)];

N_INIT_POS=5;
INIT_POS=[
(1,4,STRAIGHT_RL),
(2,1,STRAIGHT_TD),
(3,1,STRAIGHT_TD),
(4,3,STRAIGHT_RL),
(2,2,EMPTY),
];
N_TUNNELS=0;
TUNNEL_PAIRS=[];

N_GATES=0;
GATES=[];
N_ACTIVATIONS=0;
ACTIVATIONS=[];

N_DSWITCHES=0;
DSWITCHES=[];
N_STATIONS=1;
STATIONS=[
  (2,1,1),
];
